NAME: tsp25_17
COMMENT: 25-tsp problem (Padberg/Rinaldi)
TYPE: TSP
DIMENSION: 25
EDGE_WEIGHT_TYPE : EUC_2D
NODE_COORD_SECTION
1 8 7
2 2 17
3 30 2
4 30 29
5 2 1
6 1 0
7 34 33
8 38 18
9 12 23
10 9 12
11 6 39
12 6 29
13 35 3
14 1 15
15 29 10
16 6 34
17 39 12
18 24 26
19 23 2
20 39 32
21 31 19
22 18 36
23 25 9
24 0 4
25 40 10
